objective value:                    -2.93299199966519
u0,0                                                1 	(obj:0)
u0,2                                                1 	(obj:0)
u0,3                                                1 	(obj:0)
u0,4                                                1 	(obj:0)
u1,1                                                1 	(obj:0)
u1,2                                                1 	(obj:0)
u1,3                                                1 	(obj:0)
u1,8                                                1 	(obj:0)
h-1,34                                           0.01 	(obj:0)
h-1,35                                           0.01 	(obj:0)
h-1,36                                           0.01 	(obj:0)
h-1,37                                           0.01 	(obj:0)
h-1,38                                           0.01 	(obj:0)
h-1,39                                           0.01 	(obj:0)
h-1,40                                           0.01 	(obj:0)
h-1,41                                           0.01 	(obj:0)
h-1,42                                           0.01 	(obj:0)
h-1,43                                           0.01 	(obj:0)
h-1,44                                           0.01 	(obj:0)
h-1,45                                           0.01 	(obj:0)
h-1,46                                           0.01 	(obj:0)
h-1,47                                           0.01 	(obj:0)
h-1,48                                           0.01 	(obj:0)
h-1,49                                           0.01 	(obj:0)
h-1,50                                           0.01 	(obj:0)
h-1,51                                           0.01 	(obj:0)
h-1,62                                           0.01 	(obj:0)
h-1,63                                           0.01 	(obj:0)
h-1,64                                           0.01 	(obj:0)
h-1,65                                           0.01 	(obj:0)
h-1,66                                           0.01 	(obj:0)
h-1,67                                           0.01 	(obj:0)
h-1,68                                           0.01 	(obj:0)
h-1,69                                           0.01 	(obj:0)
h-1,70                                           0.01 	(obj:0)
h-1,72                                           0.01 	(obj:0)
h-1,73                                           0.01 	(obj:0)
h-1,74                                           0.01 	(obj:0)
h-1,75                                           0.01 	(obj:0)
h-1,76                                           0.01 	(obj:0)
h-1,77                                           0.01 	(obj:0)
h-1,78                                           0.01 	(obj:0)
h-1,79                                           0.01 	(obj:0)
h-1,80                                           0.01 	(obj:0)
h-1,81                                           0.01 	(obj:0)
h-1,87                                           0.01 	(obj:0)
h-1,91                                           0.01 	(obj:0)
h-1,92                                           0.01 	(obj:0)
h-1,93                                           0.01 	(obj:0)
h-1,94                                           0.01 	(obj:0)
h-1,95                                           0.01 	(obj:0)
h-1,96                                           0.01 	(obj:0)
h-1,97                                           0.01 	(obj:0)
h-1,98                                           0.01 	(obj:0)
h-1,99                                           0.01 	(obj:0)
h-1,100                                          0.01 	(obj:0)
h-1,101                                          0.01 	(obj:0)
h-1,102                                          0.01 	(obj:0)
h-1,103                                          0.01 	(obj:0)
h-1,104                                          0.01 	(obj:0)
h-1,105                                          0.01 	(obj:0)
h-1,109                                          0.01 	(obj:0)
h-1,110                                          0.01 	(obj:0)
h-1,120                                          0.01 	(obj:0)
h-1,121                                          0.01 	(obj:0)
h-1,122                                          0.01 	(obj:0)
h-1,123                                          0.01 	(obj:0)
h-1,126                                          0.01 	(obj:0)
h-1,127                                          0.01 	(obj:0)
h-1,128                             0.159019613862038 	(obj:0)
h-1,129                             0.986078431606293 	(obj:0)
h-1,130                             0.417450984716415 	(obj:0)
h-1,138                                          0.01 	(obj:0)
h-1,139                                          0.01 	(obj:0)
h-1,148                                          0.01 	(obj:0)
h-1,149                                          0.01 	(obj:0)
h-1,150                                          0.01 	(obj:0)
h-1,151                                          0.01 	(obj:0)
h-1,152                                          0.01 	(obj:0)
h-1,154                                          0.01 	(obj:0)
h-1,156                             0.351176480054855 	(obj:0)
h-1,157                             0.998235294818878 	(obj:0)
h-1,158                             0.331568638086319 	(obj:0)
h-1,159                                          0.01 	(obj:0)
h-1,160                                          0.01 	(obj:0)
h-1,161                                          0.01 	(obj:0)
h-1,166                                          0.01 	(obj:0)
h-1,167                                          0.01 	(obj:0)
h-1,175                                          0.01 	(obj:0)
h-1,180                                          0.01 	(obj:0)
h-1,183                                          0.01 	(obj:0)
h-1,184                             0.519411792755127 	(obj:0)
h-1,185                             0.935098042488098 	(obj:0)
h-1,195                                          0.01 	(obj:0)
h-1,202                                          0.01 	(obj:0)
h-1,203                                          0.01 	(obj:0)
h-1,204                                          0.01 	(obj:0)
h-1,211                             0.166470592617989 	(obj:0)
h-1,212                              0.94686274766922 	(obj:0)
h-1,213                             0.578235318660736 	(obj:0)
h-1,239                             0.319411774873734 	(obj:0)
h-1,240                                             1 	(obj:0)
h-1,241                              0.23705882370472 	(obj:0)
h-1,257                                          0.01 	(obj:0)
h-1,262                                          0.01 	(obj:0)
h-1,263                                          0.01 	(obj:0)
h-1,265                                          0.01 	(obj:0)
h-1,266                                          0.01 	(obj:0)
h-1,267                             0.782156875133514 	(obj:0)
h-1,268                             0.864509811401367 	(obj:0)
h-1,269                            0.0331372560560703 	(obj:0)
h-1,271                                          0.01 	(obj:0)
h-1,275                                          0.01 	(obj:0)
h-1,285                                          0.01 	(obj:0)
h-1,286                                          0.01 	(obj:0)
h-1,291                                          0.01 	(obj:0)
h-1,292                                          0.01 	(obj:0)
h-1,294                             0.115490203499794 	(obj:0)
h-1,295                             0.986078431606293 	(obj:0)
h-1,296                             0.837058832645416 	(obj:0)
h-1,298                                          0.01 	(obj:0)
h-1,299                                          0.01 	(obj:0)
h-1,314                                          0.01 	(obj:0)
h-1,322                             0.362549027204514 	(obj:0)
h-1,323                             0.986078431606293 	(obj:0)
h-1,324                             0.754705896377563 	(obj:0)
h-1,327                                          0.01 	(obj:0)
h-1,329                                          0.01 	(obj:0)
h-1,331                                          0.01 	(obj:0)
h-1,332                                          0.01 	(obj:0)
h-1,350                             0.539019634723663 	(obj:0)
h-1,351                             0.986078431606293 	(obj:0)
h-1,352                             0.291960796117783 	(obj:0)
h-1,357                                          0.01 	(obj:0)
h-1,358                                          0.01 	(obj:0)
h-1,359                                          0.01 	(obj:0)
h-1,360                                          0.01 	(obj:0)
h-1,361                                          0.01 	(obj:0)
h-1,363                                          0.01 	(obj:0)
h-1,377                             0.213529413342476 	(obj:0)
h-1,378                             0.919411768913269 	(obj:0)
h-1,379                             0.793921580314636 	(obj:0)
h-1,380                            0.0213725508749485 	(obj:0)
h-1,385                                          0.01 	(obj:0)
h-1,386                                          0.01 	(obj:0)
h-1,387                                          0.01 	(obj:0)
h-1,388                                          0.01 	(obj:0)
h-1,389                                          0.01 	(obj:0)
h-1,390                                          0.01 	(obj:0)
h-1,391                                          0.01 	(obj:0)
h-1,398                                          0.01 	(obj:0)
h-1,399                                          0.01 	(obj:0)
h-1,402                                          0.01 	(obj:0)
h-1,403                                          0.01 	(obj:0)
h-1,405                             0.476274510622025 	(obj:0)
h-1,406                                          0.99 	(obj:0)
h-1,407                             0.637058844566345 	(obj:0)
h-1,412                                          0.01 	(obj:0)
h-1,414                                          0.01 	(obj:0)
h-1,415                                          0.01 	(obj:0)
h-1,416                                          0.01 	(obj:0)
h-1,417                                          0.01 	(obj:0)
h-1,418                                          0.01 	(obj:0)
h-1,419                                          0.01 	(obj:0)
h-1,424                                          0.01 	(obj:0)
h-1,425                                          0.01 	(obj:0)
h-1,426                                          0.01 	(obj:0)
h-1,427                                          0.01 	(obj:0)
h-1,428                                          0.01 	(obj:0)
h-1,429                                          0.01 	(obj:0)
h-1,430                                          0.01 	(obj:0)
h-1,433                             0.660588254928589 	(obj:0)
h-1,434                             0.986078431606293 	(obj:0)
h-1,435                             0.307647069692612 	(obj:0)
h-1,441                                          0.01 	(obj:0)
h-1,444                                          0.01 	(obj:0)
h-1,445                                          0.01 	(obj:0)
h-1,446                                          0.01 	(obj:0)
h-1,447                                          0.01 	(obj:0)
h-1,451                                          0.01 	(obj:0)
h-1,452                                          0.01 	(obj:0)
h-1,453                                          0.01 	(obj:0)
h-1,454                                          0.01 	(obj:0)
h-1,455                                          0.01 	(obj:0)
h-1,456                                          0.01 	(obj:0)
h-1,457                                          0.01 	(obj:0)
h-1,458                                          0.01 	(obj:0)
h-1,460                            0.0841176488995552 	(obj:0)
h-1,461                             0.899803926944733 	(obj:0)
h-1,462                             0.833137264251709 	(obj:0)
h-1,465                                          0.01 	(obj:0)
h-1,466                                          0.01 	(obj:0)
h-1,467                                          0.01 	(obj:0)
h-1,468                                          0.01 	(obj:0)
h-1,469                                          0.01 	(obj:0)
h-1,470                                          0.01 	(obj:0)
h-1,471                                          0.01 	(obj:0)
h-1,472                                          0.01 	(obj:0)
h-1,473                                          0.01 	(obj:0)
h-1,474                                          0.01 	(obj:0)
h-1,475                                          0.01 	(obj:0)
h-1,480                                          0.01 	(obj:0)
h-1,481                                          0.01 	(obj:0)
h-1,482                                          0.01 	(obj:0)
h-1,483                                          0.01 	(obj:0)
h-1,484                                          0.01 	(obj:0)
h-1,485                                          0.01 	(obj:0)
h-1,486                                          0.01 	(obj:0)
h-1,487                                          0.01 	(obj:0)
h-1,488                             0.480588237047195 	(obj:0)
h-1,489                             0.986078431606293 	(obj:0)
h-1,490                             0.613529434204102 	(obj:0)
h-1,491                                          0.01 	(obj:0)
h-1,492                                          0.01 	(obj:0)
h-1,493                                          0.01 	(obj:0)
h-1,494                                          0.01 	(obj:0)
h-1,495                                          0.01 	(obj:0)
h-1,496                                          0.01 	(obj:0)
h-1,497                                          0.01 	(obj:0)
h-1,498                                          0.01 	(obj:0)
h-1,499                                          0.01 	(obj:0)
h-1,500                                          0.01 	(obj:0)
h-1,501                                          0.01 	(obj:0)
h-1,502                                          0.01 	(obj:0)
h-1,503                                          0.01 	(obj:0)
h-1,504                                          0.01 	(obj:0)
h-1,508                                          0.01 	(obj:0)
h-1,509                                          0.01 	(obj:0)
h-1,510                                          0.01 	(obj:0)
h-1,511                                          0.01 	(obj:0)
h-1,512                                          0.01 	(obj:0)
h-1,513                                          0.01 	(obj:0)
h-1,514                                          0.01 	(obj:0)
h-1,515                                          0.01 	(obj:0)
h-1,516                             0.602156887054443 	(obj:0)
h-1,517                                             1 	(obj:0)
h-1,518                             0.566862771511078 	(obj:0)
h-1,519                                          0.01 	(obj:0)
h-1,520                                          0.01 	(obj:0)
h-1,521                                          0.01 	(obj:0)
h-1,522                                          0.01 	(obj:0)
h-1,523                                          0.01 	(obj:0)
h-1,524                                          0.01 	(obj:0)
h-1,526                                          0.01 	(obj:0)
h-1,527                                          0.01 	(obj:0)
h-1,528                                          0.01 	(obj:0)
h-1,529                                          0.01 	(obj:0)
h-1,531                                          0.01 	(obj:0)
h-1,536                                          0.01 	(obj:0)
h-1,537                                          0.01 	(obj:0)
h-1,539                                          0.01 	(obj:0)
h-1,540                                          0.01 	(obj:0)
h-1,541                                          0.01 	(obj:0)
h-1,542                                          0.01 	(obj:0)
h-1,543                                          0.01 	(obj:0)
h-1,544                             0.904117653369904 	(obj:0)
h-1,545                                             1 	(obj:0)
h-1,546                             0.268823543787003 	(obj:0)
h-1,547                                          0.01 	(obj:0)
h-1,548                                          0.01 	(obj:0)
h-1,549                                          0.01 	(obj:0)
h-1,550                                          0.01 	(obj:0)
h-1,551                                          0.01 	(obj:0)
h-1,552                                          0.01 	(obj:0)
h-1,553                                          0.01 	(obj:0)
h-1,554                                          0.01 	(obj:0)
h-1,555                                          0.01 	(obj:0)
h-1,556                                          0.01 	(obj:0)
h-1,557                                          0.01 	(obj:0)
h-1,558                                          0.01 	(obj:0)
h-1,561                                          0.01 	(obj:0)
h-1,564                                          0.01 	(obj:0)
h-1,565                                          0.01 	(obj:0)
h-1,566                                          0.01 	(obj:0)
h-1,567                                          0.01 	(obj:0)
h-1,568                                          0.01 	(obj:0)
h-1,569                                          0.01 	(obj:0)
h-1,570                                          0.01 	(obj:0)
h-1,571                             0.249215686917305 	(obj:0)
h-1,572                             0.994313726425171 	(obj:0)
h-1,573                                             1 	(obj:0)
h-1,574                             0.268823543787003 	(obj:0)
h-1,575                                          0.01 	(obj:0)
h-1,576                                          0.01 	(obj:0)
h-1,578                                          0.01 	(obj:0)
h-1,579                                          0.01 	(obj:0)
h-1,580                                          0.01 	(obj:0)
h-1,581                                          0.01 	(obj:0)
h-1,582                                          0.01 	(obj:0)
h-1,583                                          0.01 	(obj:0)
h-1,584                                          0.01 	(obj:0)
h-1,585                                          0.01 	(obj:0)
h-1,592                                          0.01 	(obj:0)
h-1,593                                          0.01 	(obj:0)
h-1,594                                          0.01 	(obj:0)
h-1,595                                          0.01 	(obj:0)
h-1,597                                          0.01 	(obj:0)
h-1,598                                          0.01 	(obj:0)
h-1,599                             0.562941203117371 	(obj:0)
h-1,600                                             1 	(obj:0)
h-1,601                             0.813921580314636 	(obj:0)
h-1,602                            0.0217647061124444 	(obj:0)
h-1,603                                          0.01 	(obj:0)
h-1,604                                          0.01 	(obj:0)
h-1,605                                          0.01 	(obj:0)
h-1,606                                          0.01 	(obj:0)
h-1,607                                          0.01 	(obj:0)
h-1,608                                          0.01 	(obj:0)
h-1,609                                          0.01 	(obj:0)
h-1,610                                          0.01 	(obj:0)
h-1,611                                          0.01 	(obj:0)
h-1,612                                          0.01 	(obj:0)
h-1,613                                          0.01 	(obj:0)
h-1,614                                          0.01 	(obj:0)
h-1,618                                          0.01 	(obj:0)
h-1,620                                          0.01 	(obj:0)
h-1,621                                          0.01 	(obj:0)
h-1,622                                          0.01 	(obj:0)
h-1,623                                          0.01 	(obj:0)
h-1,624                                          0.01 	(obj:0)
h-1,625                                          0.01 	(obj:0)
h-1,626                            0.0492156876623631 	(obj:0)
h-1,627                             0.853137264251709 	(obj:0)
h-1,628                                             1 	(obj:0)
h-1,629                             0.484509805440903 	(obj:0)
h-1,630                                          0.01 	(obj:0)
h-1,631                                          0.01 	(obj:0)
h-1,634                                          0.01 	(obj:0)
h-1,635                                          0.01 	(obj:0)
h-1,636                                          0.01 	(obj:0)
h-1,637                                          0.01 	(obj:0)
h-1,638                                          0.01 	(obj:0)
h-1,639                                          0.01 	(obj:0)
h-1,640                                          0.01 	(obj:0)
h-1,641                                          0.01 	(obj:0)
h-1,646                                          0.01 	(obj:0)
h-1,652                                          0.01 	(obj:0)
h-1,653                                          0.01 	(obj:0)
h-1,654                           0.00960784383118152 	(obj:0)
h-1,655                             0.786470601558685 	(obj:0)
h-1,656                             0.700196096897125 	(obj:0)
h-1,657                            0.0292156876623631 	(obj:0)
h-1,663                                          0.01 	(obj:0)
h-1,664                                          0.01 	(obj:0)
h-1,665                                          0.01 	(obj:0)
h-1,666                                          0.01 	(obj:0)
h-1,667                                          0.01 	(obj:0)
h-1,668                                          0.01 	(obj:0)
h-1,669                                          0.01 	(obj:0)
h-1,674                                          0.01 	(obj:0)
h-1,684                                          0.01 	(obj:0)
h-1,685                                          0.01 	(obj:0)
h-1,686                                          0.01 	(obj:0)
h-1,687                                          0.01 	(obj:0)
h-1,691                                          0.01 	(obj:0)
h-1,692                                          0.01 	(obj:0)
h-1,693                                          0.01 	(obj:0)
h-1,694                                          0.01 	(obj:0)
h-1,695                                          0.01 	(obj:0)
h-1,696                                          0.01 	(obj:0)
h-1,697                                          0.01 	(obj:0)
h-1,698                                          0.01 	(obj:0)
h-1,720                                          0.01 	(obj:0)
h-1,723                                          0.01 	(obj:0)
h-1,724                                          0.01 	(obj:0)
h-1,725                                          0.01 	(obj:0)
h-1,726                                          0.01 	(obj:0)
h-1,732                                          0.01 	(obj:0)
h-1,733                                          0.01 	(obj:0)
h-1,734                                          0.01 	(obj:0)
h-1,739                                          0.01 	(obj:0)
h-1,747                                          0.01 	(obj:0)
h-1,748                                          0.01 	(obj:0)
h-1,751                                          0.01 	(obj:0)
h-1,752                                          0.01 	(obj:0)
h-1,765                                          0.01 	(obj:0)
h-1,771                                          0.01 	(obj:0)
h-1,772                                          0.01 	(obj:0)
h-1,777                                          0.01 	(obj:0)
h-1,778                                          0.01 	(obj:0)
z0,0                                 2.97444410571663 	(obj:0)
h0,0                                 2.97444410571663 	(obj:0)
z0,1                                 -1.0374344809211 	(obj:0)
not_h0,1                              1.0374344809211 	(obj:0)
z0,2                                0.225789248327849 	(obj:0)
h0,2                                0.225789248327849 	(obj:0)
z0,3                                 3.13226760288232 	(obj:0)
h0,3                                 3.13226760288232 	(obj:0)
z0,4                                 5.06330615930565 	(obj:0)
h0,4                                 5.06330615930565 	(obj:0)
z1,0                                -5.58613753977543 	(obj:0)
not_h1,0                             5.58613753977543 	(obj:0)
z1,1                                 5.53888475189157 	(obj:0)
h1,1                                 5.53888475189157 	(obj:-1)
z1,2                                 2.60589275222639 	(obj:0)
h1,2                                 2.60589275222639 	(obj:1)
h-1,7                                            0.01 	(obj:0)
z1,3                                 2.15378930775346 	(obj:0)
h1,3                                 2.15378930775346 	(obj:0)
z1,4                                -2.15692637467649 	(obj:0)
not_h1,4                             2.15692637467649 	(obj:0)
z1,5                                -3.42487178021291 	(obj:0)
not_h1,5                             3.42487178021291 	(obj:0)
z1,6                                -1.98760882535186 	(obj:0)
not_h1,6                             1.98760882535186 	(obj:0)
z1,7                                -2.25287917716172 	(obj:0)
not_h1,7                             2.25287917716172 	(obj:0)
h-1,12                                           0.01 	(obj:0)
z1,8                                 1.40516982965682 	(obj:0)
h1,8                                 1.40516982965682 	(obj:0)
h-1,13                                           0.01 	(obj:0)
z1,9                               -0.154576257856725 	(obj:0)
not_h1,9                            0.154576257856725 	(obj:0)
h-1,14                                           0.01 	(obj:0)
